p cnf 35 92
a 18 12 0
e 1 2 3 4 5 6 7 8 9 10 11 13 14 15 16 17 19 20 21 22 23 24 25 26 27 28 29 30 31 32 33 34 35 0
-2 -1 0
-2 -1 0
1 2 0
-3 4 -5 0
3 -4 -5 0
-3 -4 5 0
3 4 5 0
-6 5 0
-6 -1 0
-5 1 6 0
9 7 0
9 8 0
-7 -8 -9 0
-6 9 -10 0
6 -9 -10 0
-6 -9 10 0
6 9 10 0
-2 -10 -11 0
2 10 -11 0
-2 10 11 0
2 -10 11 0
-3 12 -13 0
3 -12 -13 0
-3 -12 13 0
3 12 13 0
15 -14 0
15 -7 0
14 7 -15 0
17 16 0
17 -7 0
-16 7 -17 0
-18 3 0
-18 -17 0
-3 17 18 0
19 14 0
19 18 0
-14 -18 -19 0
-15 -19 -20 0
15 19 -20 0
-15 19 20 0
15 -19 20 0
13 -20 -21 0
-13 20 -21 0
13 20 21 0
-13 -20 21 0
11 21 -22 0
-11 -21 -22 0
11 -21 22 0
-11 21 22 0
25 -24 0
25 -4 0
24 4 -25 0
23 25 -26 0
-23 -25 -26 0
23 -25 26 0
-23 25 26 0
-27 16 0
-27 16 0
-16 27 0
28 -27 0
28 4 0
27 -4 -28 0
29 7 0
29 28 0
-7 -28 -29 0
-30 -26 0
-30 29 0
26 -29 30 0
31 -4 0
31 17 0
4 -17 -31 0
-32 16 0
-32 -17 0
-16 17 32 0
33 -31 0
33 -32 0
31 32 -33 0
-34 30 0
-34 33 0
-30 -33 34 0
-35 22 0
-35 -34 0
-22 34 35 0
-20 -16 -29 33 -34 19 0
-11 8 -6 0
14 32 22 -15 34 -2 0
-10 -23 -11 0
10 5 -20 6 7 0
-17 -35 1 -5 -32 -22 0
11 9 16 0
-28 15 21 -25 27 32 0
35 0
